n = 150; 

m = 5; 

p = [60, 50, 20, 10, 10]; 

v = [0.1, 0.25, 0.5, 0.75, 0.9];

c = array2d(1..m, 1..m, [
    0.0, 5.0, 10.0, 15.0, 20.0,
    5.0, 0.0, 8.0, 13.0, 18.0, 
    10.0, 8.0, 0.0, 9.0, 14.0,
    15.0, 13.0, 9.0, 0.0, 12.0,
    20.0, 18.0, 14.0, 12.0, 0.0
]);

ce = [3.0, 2.5, 2.0, 1.5, 1.0];

ct = 80.0;

maxM = 20; 